(set-logic HORN)
(declare-fun inv ((_ BitVec 32) (_ BitVec 32) (_ BitVec 32) ) Bool)
(assert (forall ((i (_ BitVec 32)) (j (_ BitVec 32)) (k (_ BitVec 32))) 
       (=> ( and ( = i (_ bv0 32) ) ( = j (_ bv1 32) ) ( = k (_ bv0 32) ) ) (inv i j k))))
(assert (forall ((i (_ BitVec 32)) (j (_ BitVec 32)) (k (_ BitVec 32)) (i! (_ BitVec 32)) (j! (_ BitVec 32)) (k! (_ BitVec 32))) 
       (=> (and (inv i j k) ( and ( bvult i (_ bv1000 32) ) ( = i! ( bvadd i (_ bv1 32) ) ) ( = j! ( bvadd j (_ bv1 32) ) ) ( = k! ( bvadd k ( bvmul i! j! ) ) ) )) (inv i! j! k!))))
(assert (forall ((i (_ BitVec 32)) (j (_ BitVec 32)) (k (_ BitVec 32))) 
       (=> (inv i j k) ( or ( bvult i (_ bv1000 32) ) ( bvule ( bvmul (_ bv1000 32) j ) k ) ))))
(check-sat)
